NAME: ACTUAL_TOURS/amz0102
TYPE: TOUR
COMMENT: RouteID_0b30f03f-140c-401c-ab1e-a3cdb88c08ff
DIMENSION: 174
TOUR_SECTION
78
23
164
24
6
96
89
172
8
110
149
134
153
35
102
85
39
50
93
32
174
57
56
66
159
31
94
109
46
82
125
166
52
112
136
28
98
76
91
69
47
140
80
150
121
148
161
48
111
40
95
133
20
135
92
118
97
90
16
117
75
163
55
167
151
21
120
139
147
79
72
88
45
53
61
154
51
129
54
104
127
70
81
126
132
169
158
122
103
145
130
19
62
73
156
108
83
26
5
71
22
1
63
3
12
170
160
141
100
25
119
116
87
42
60
99
9
137
44
171
58
14
77
168
13
68
165
144
146
173
36
128
124
86
15
33
138
7
10
114
155
115
74
34
101
131
152
29
18
59
162
84
49
106
64
27
17
41
123
11
43
67
157
2
38
65
105
143
30
107
142
37
113
4
-1
EOF
